% demand
num_movements = 39;
loading_factor = [1450, 1450, 1150, 1200, 1550, 1600, 950, 1500, 1350, 1450, 1800, 1450, 1350, 800, 1050, 1700, 1300, 1200, 1250, 1450, 2000, 1900, 1250, 1700, 1100, 1050, 1550, 1700, 800, 800, 1450, 950, 800, 1500, 1200, 1400, 1050, 900, 1850];
pickup_time = [0, 0, 0, 0, 0, 1, 1, 1, 3, 3, 3, 4, 4, 4, 4, 4, 6, 6, 6, 6, 7, 8, 8, 8, 8, 8, 9, 9, 9, 10, 10, 10, 10, 10, 11, 11, 13, 13, 13];
delivery_time = [2, 1, 1, 3, 1, 3, 2, 2, 4, 4, 4, 6, 6, 6, 8, 6, 8, 8, 8, 7, 8, 9, 10, 10, 9, 9, 10, 10, 10, 11, 12, 11, 11, 12, 14, 12, 14, 14, 14];

% transporter definition
total_capacity = 7000;
num_decks = 3;
capacity = [3000, 1000, 3000];

% ways out of decks
num_ways_out = 1;
paths_out = array3d(decks, ways_out, decks, [
% ways out of deck d1
2, 3, 0, 

% ways out of deck d2
3, 0, 0, 

% ways out of deck d3
0, 0, 0,	

]);

